(set-logic QF_S)
(declare-fun _var_0xINPUT_114216_() String)
(declare-fun __woorpje_diseq_pref0_() String)
(declare-fun __woorpje_diseq_suf_l0_() String)
(declare-fun __woorpje_diseq_suf_r0_() String)
(assert (=(str.++  "DGrgdFC8ZU" "")(str.++ __woorpje_diseq_pref0_  "F" __woorpje_diseq_suf_l0_  "")) )
(assert (=(str.++ _var_0xINPUT_114216_  "")(str.++ __woorpje_diseq_pref0_  "U" __woorpje_diseq_suf_r0_  "")) )
(check-sat)
